g3 0 1 0	# problem multiplants_stg1
 415 262 1 0 136	# vars, constraints, objectives, ranges, eqns
 34 0	# nonlinear constraints, objectives
 0 0	# network constraints: nonlinear, linear
 49 0 0	# nonlinear vars in constraints, objectives, both
 0 0 0 1	# linear network variables; functions; arith, flags
 198 0 0 0 0	# discrete variables: binary, integer, nonlinear (b,c,o)
 1675 1	# nonzeros in Jacobian, gradients
 4 6	# max name lengths: constraints, variables
 0 0 0 0 0	# common exprs: b,c,o,c1,o1
b
0 0 2.25e5
0 0 2.25e5
0 0 2.25e5
0 0 2.25e5
0 0 2.25e5
0 0 2.25e5
0 0 2.25e5
0 0 2.25e5
0 0 2.25e5
0 0 2.25e5
0 0 2.25e5
0 0 1.5e5
0 0 1.5e5
0 0 1.5e5
0 0 1.5e5
0 0 1.5e5
0 0 1.5e5
0 0 1.5e5
0 0 1.5e5
0 0 1.5e5
0 0 1.5e5
0 0 1.5e5
0 0 2.75e5
0 0 2.75e5
0 0 2.75e5
0 0 2.75e5
0 0 2.75e5
0 0 2.75e5
0 0 2.75e5
0 0 2.75e5
0 0 2.75e5
0 0 2.75e5
0 0 2.75e5
0 0 2.25e5
0 0 3e5
0 0 2.75e5
4 0
0 0 2.5e2
0 0 2.5e2
0 0 2.5e2
0 0 2.5e2
0 0 2.5e2
0 0 2.5e2
0 0 2.5e2
0 0 2.5e2
0 0 2.5e2
0 0 2.5e2
0 100 2.5e2
3
0 0 2e5
0 0 2e5
0 0 2e5
0 0 2e5
0 0 2e5
0 0 2e5
0 0 2e5
0 0 2e5
0 0 2e5
0 0 2e5
0 0 2e5
0 0 2.25e5
0 0 2.25e5
0 0 2.25e5
0 0 2.25e5
0 0 2.25e5
0 0 2.25e5
0 0 2.25e5
0 0 2.25e5
0 0 2.25e5
0 0 2.25e5
0 0 2.25e5
0 0 3e5
0 0 3e5
0 0 3e5
0 0 3e5
0 0 3e5
0 0 3e5
0 0 3e5
0 0 3e5
0 0 3e5
0 0 3e5
0 0 3e5
0 0 1.5e5
0 0 1.5e5
0 0 1.5e5
0 0 1.5e5
0 0 1.5e5
0 0 1.5e5
0 0 1.5e5
0 0 1.5e5
0 0 1.5e5
0 0 1.5e5
0 0 1.5e5
0 0 2.5e5
0 0 2.5e5
0 0 2.5e5
0 0 2.5e5
0 0 2.5e5
0 0 2.5e5
0 0 2.5e5
0 0 2.5e5
0 0 2.5e5
0 0 2.5e5
0 0 2.5e5
0 0 2.75e5
0 0 2.75e5
0 0 2.75e5
0 0 2.75e5
0 0 2.75e5
0 0 2.75e5
0 0 2.75e5
0 0 2.75e5
0 0 2.75e5
0 0 2.75e5
0 0 2.75e5
4 0
4 0
4 0
4 0
4 0
4 0
4 0
4 0
4 0
4 0
4 0
4 0
4 0
4 0
4 0
4 0
4 0
4 0
4 0
4 0
4 0
4 0
4 0
4 0
4 0
4 0
4 0
4 0
4 0
4 0
4 0
4 0
4 0
4 0
4 0
4 0
4 0
4 0
4 0
4 0
4 0
4 0
4 0
4 0
4 0
4 0
4 0
4 0
4 0
4 0
4 0
4 0
4 0
4 0
4 0
4 0
4 0
4 0
4 0
4 0
4 0
4 0
4 0
4 0
4 0
4 0
0 0 2e5
0 0 2e5
0 0 2e5
0 0 2e5
0 0 2e5
0 0 2e5
0 0 2e5
0 0 2e5
0 0 2e5
0 0 2e5
0 0 2e5
0 0 3e5
0 0 3e5
0 0 3e5
0 0 3e5
0 0 3e5
0 0 3e5
0 0 3e5
0 0 3e5
0 0 3e5
0 0 3e5
0 0 3e5
0 0 2.5e5
0 0 2.5e5
0 0 2.5e5
0 0 2.5e5
0 0 2.5e5
0 0 2.5e5
0 0 2.5e5
0 0 2.5e5
0 0 2.5e5
0 0 2.5e5
0 0 2.5e5
0 0 2e5
0 0 3e5
0 0 2.5e5
0 0 1
0 0 1
0 0 1
0 0 1
0 0 1
0 0 1
0 0 1
0 0 1
0 0 1
0 0 1
0 0 1
0 0 1
0 0 1
0 0 1
0 0 1
0 0 1
0 0 1
0 0 1
0 0 1
0 0 1
0 0 1
0 0 1
0 0 1
0 0 1
0 0 1
0 0 1
0 0 1
0 0 1
0 0 1
0 0 1
0 0 1
0 0 1
0 0 1
0 0 1
0 0 1
0 0 1
0 0 1
0 0 1
0 0 1
0 0 1
0 0 1
0 0 1
0 0 1
0 0 1
0 0 1
0 0 1
0 0 1
0 0 1
0 0 1
0 0 1
0 0 1
0 0 1
0 0 1
0 0 1
0 0 1
0 0 1
0 0 1
0 0 1
0 0 1
0 0 1
0 0 1
0 0 1
0 0 1
0 0 1
0 0 1
0 0 1
0 0 1
0 0 1
0 0 1
0 0 1
0 0 1
0 0 1
0 0 1
0 0 1
0 0 1
0 0 1
0 0 1
0 0 1
0 0 1
0 0 1
0 0 1
0 0 1
0 0 1
0 0 1
0 0 1
0 0 1
0 0 1
0 0 1
0 0 1
0 0 1
0 0 1
0 0 1
0 0 1
0 0 1
0 0 1
0 0 1
0 0 1
0 0 1
0 0 1
0 0 1
0 0 1
0 0 1
0 0 1
0 0 1
0 0 1
0 0 1
0 0 1
0 0 1
0 0 1
0 0 1
0 0 1
0 0 1
0 0 1
0 0 1
0 0 1
0 0 1
0 0 1
0 0 1
0 0 1
0 0 1
0 0 1
0 0 1
0 0 1
0 0 1
0 0 1
0 0 1
0 0 1
0 0 1
0 0 1
0 0 1
0 0 1
0 0 1
0 0 1
0 0 1
0 0 1
0 0 1
0 0 1
0 0 1
0 0 1
0 0 1
0 0 1
0 0 1
0 0 1
0 0 1
0 0 1
0 0 1
0 0 1
0 0 1
0 0 1
0 0 1
0 0 1
0 0 1
0 0 1
0 0 1
0 0 1
0 0 1
0 0 1
0 0 1
0 0 1
0 0 1
0 0 1
0 0 1
0 0 1
0 0 1
0 0 1
0 0 1
0 0 1
0 0 1
0 0 1
0 0 1
0 0 1
0 0 1
0 0 1
0 0 1
0 0 1
0 0 1
0 0 1
0 0 1
0 0 1
0 0 1
0 0 1
0 0 1
0 0 1
0 0 1
0 0 1
0 0 1
0 0 1
0 0 1
0 0 1
0 0 1
0 0 1
0 0 1
0 0 1
0 0 1
0 0 1
0 0 1
0 0 1
0 0 1
x1
47 100
r
4 0
4 0
4 0
4 0
4 0
4 0
4 0
4 0
4 0
4 0
4 0
4 0
4 0
4 0
4 0
4 0
4 0
4 0
4 0
4 0
4 0
4 0
4 0
4 0
4 0
4 0
4 0
4 0
4 0
4 0
4 0
4 0
4 0
4 0
4 0
4 0
4 0
4 0
4 0
4 0
4 0
4 0
4 0
4 0
4 0
4 0
4 0
4 0
4 0
4 0
4 0
4 0
4 0
4 0
4 0
4 0
4 0
4 0
4 0
4 0
4 0
4 0
4 0
4 0
4 0
4 0
4 0
4 0
4 0
4 0
4 0
4 0
4 0
4 0
4 0
4 0
4 0
4 0
4 0
4 0
4 0
4 0
4 0
4 0
4 0
4 0
4 0
4 0
4 0
4 0
4 0
4 0
4 0
4 0
4 0
4 0
4 0
4 0
4 0
4 0
4 0
4 0
4 0
4 0
4 0
4 0
4 0
4 0
4 0
4 0
4 0
4 0
4 0
4 0
4 0
4 0
4 0
4 0
4 0
4 0
4 0
4 0
4 0
4 0
4 0
4 0
4 0
4 0
4 0
4 0
4 0
4 0
4 0
4 1
4 1
2 0
2 0
2 0
2 0
2 0
2 0
2 0
2 0
2 0
2 0
2 0
2 0
2 0
2 0
2 0
2 0
2 0
2 0
2 0
2 0
2 0
2 0
1 0
1 0
1 0
1 0
1 0
1 0
1 0
1 0
1 0
1 0
1 0
1 0
1 0
1 0
1 0
1 0
1 0
1 0
1 0
1 0
1 0
1 0
1 0
1 0
1 0
1 0
1 0
1 0
1 0
1 0
1 0
1 0
1 0
1 0
1 0
1 0
1 0
1 0
1 0
1 0
1 0
1 0
1 0
1 0
1 0
1 0
1 0
1 0
1 0
1 0
1 0
1 0
1 0
1 0
1 0
1 0
1 0
1 0
1 0
1 0
1 0
1 0
1 0
1 0
1 0
1 0
2 0
2 0
2 0
1 0
1 0
1 0
1 0
1 0
1 0
1 0
1 0
1 0
1 0
1 0
1 0
1 0
1 0
1 0
1 0
1 0
1 0
1 0
1 0
1 0
1 0
1 0
1 0
1 0
1 0
1 0
1 0
1 0
1 0
1 0
1 0
1 0
1 3
1 3
4 1
C0
o54
34
o2
v48
v47
o2
o0
o2
n2.03e-3
v0
o2
n2.03e-3
v1
o1
v37
v36
o2
o0
o2
n2.03e-3
v1
o2
n2.03e-3
v2
o1
v38
v37
o2
o0
o2
n2.03e-3
v2
o2
n2.03e-3
v3
o1
v39
v38
o2
o0
o2
n2.03e-3
v3
o2
n2.03e-3
v4
o1
v40
v39
o2
o0
o2
n2.03e-3
v4
o2
n2.03e-3
v5
o1
v41
v40
o2
o0
o2
n2.03e-3
v5
o2
n2.03e-3
v6
o1
v42
v41
o2
o0
o2
n2.03e-3
v6
o2
n2.03e-3
v7
o1
v43
v42
o2
o0
o2
n2.03e-3
v7
o2
n2.03e-3
v8
o1
v44
v43
o2
o0
o2
n2.03e-3
v8
o2
n2.03e-3
v9
o1
v45
v44
o2
o0
o2
n2.03e-3
v9
o2
n2.03e-3
v10
o1
v46
v45
o2
o0
o2
n2.03e-3
v0
o2
n2.03e-3
v10
o1
v47
v46
o2
o0
o2
n2.03e-3
v11
o2
n2.03e-3
v12
o1
v37
v36
o2
o0
o2
n2.03e-3
v12
o2
n2.03e-3
v13
o1
v38
v37
o2
o0
o2
n2.03e-3
v13
o2
n2.03e-3
v14
o1
v39
v38
o2
o0
o2
n2.03e-3
v14
o2
n2.03e-3
v15
o1
v40
v39
o2
o0
o2
n2.03e-3
v15
o2
n2.03e-3
v16
o1
v41
v40
o2
o0
o2
n2.03e-3
v16
o2
n2.03e-3
v17
o1
v42
v41
o2
o0
o2
n2.03e-3
v17
o2
n2.03e-3
v18
o1
v43
v42
o2
o0
o2
n2.03e-3
v18
o2
n2.03e-3
v19
o1
v44
v43
o2
o0
o2
n2.03e-3
v19
o2
n2.03e-3
v20
o1
v45
v44
o2
o0
o2
n2.03e-3
v20
o2
n2.03e-3
v21
o1
v46
v45
o2
o0
o2
n2.03e-3
v11
o2
n2.03e-3
v21
o1
v47
v46
o2
o0
o2
n2.03e-3
v22
o2
n2.03e-3
v23
o1
v37
v36
o2
o0
o2
n2.03e-3
v23
o2
n2.03e-3
v24
o1
v38
v37
o2
o0
o2
n2.03e-3
v24
o2
n2.03e-3
v25
o1
v39
v38
o2
o0
o2
n2.03e-3
v25
o2
n2.03e-3
v26
o1
v40
v39
o2
o0
o2
n2.03e-3
v26
o2
n2.03e-3
v27
o1
v41
v40
o2
o0
o2
n2.03e-3
v27
o2
n2.03e-3
v28
o1
v42
v41
o2
o0
o2
n2.03e-3
v28
o2
n2.03e-3
v29
o1
v43
v42
o2
o0
o2
n2.03e-3
v29
o2
n2.03e-3
v30
o1
v44
v43
o2
o0
o2
n2.03e-3
v30
o2
n2.03e-3
v31
o1
v45
v44
o2
o0
o2
n2.03e-3
v31
o2
n2.03e-3
v32
o1
v46
v45
o2
o0
o2
n2.03e-3
v22
o2
n2.03e-3
v32
o1
v47
v46
C1
o2
o3
v33
v47
o1
v47
v46
C2
o2
o3
v33
v47
o1
v37
v36
C3
o2
o3
v33
v47
o1
v38
v37
C4
o2
o3
v33
v47
o1
v39
v38
C5
o2
o3
v33
v47
o1
v40
v39
C6
o2
o3
v33
v47
o1
v41
v40
C7
o2
o3
v33
v47
o1
v42
v41
C8
o2
o3
v33
v47
o1
v43
v42
C9
o2
o3
v33
v47
o1
v44
v43
C10
o2
o3
v33
v47
o1
v45
v44
C11
o2
o3
v33
v47
o1
v46
v45
C12
o2
o3
v34
v47
o1
v47
v46
C13
o2
o3
v34
v47
o1
v37
v36
C14
o2
o3
v34
v47
o1
v38
v37
C15
o2
o3
v34
v47
o1
v39
v38
C16
o2
o3
v34
v47
o1
v40
v39
C17
o2
o3
v34
v47
o1
v41
v40
C18
o2
o3
v34
v47
o1
v42
v41
C19
o2
o3
v34
v47
o1
v43
v42
C20
o2
o3
v34
v47
o1
v44
v43
C21
o2
o3
v34
v47
o1
v45
v44
C22
o2
o3
v34
v47
o1
v46
v45
C23
o2
o3
v35
v47
o1
v47
v46
C24
o2
o3
v35
v47
o1
v37
v36
C25
o2
o3
v35
v47
o1
v38
v37
C26
o2
o3
v35
v47
o1
v39
v38
C27
o2
o3
v35
v47
o1
v40
v39
C28
o2
o3
v35
v47
o1
v41
v40
C29
o2
o3
v35
v47
o1
v42
v41
C30
o2
o3
v35
v47
o1
v43
v42
C31
o2
o3
v35
v47
o1
v44
v43
C32
o2
o3
v35
v47
o1
v45
v44
C33
o2
o3
v35
v47
o1
v46
v45
C34
n0
C35
n0
C36
n0
C37
n0
C38
n0
C39
n0
C40
n0
C41
n0
C42
n0
C43
n0
C44
n0
C45
n0
C46
n0
C47
n0
C48
n0
C49
n0
C50
n0
C51
n0
C52
n0
C53
n0
C54
n0
C55
n0
C56
n0
C57
n0
C58
n0
C59
n0
C60
n0
C61
n0
C62
n0
C63
n0
C64
n0
C65
n0
C66
n0
C67
n0
C68
n0
C69
n0
C70
n0
C71
n0
C72
n0
C73
n0
C74
n0
C75
n0
C76
n0
C77
n0
C78
n0
C79
n0
C80
n0
C81
n0
C82
n0
C83
n0
C84
n0
C85
n0
C86
n0
C87
n0
C88
n0
C89
n0
C90
n0
C91
n0
C92
n0
C93
n0
C94
n0
C95
n0
C96
n0
C97
n0
C98
n0
C99
n0
C100
n0
C101
n0
C102
n0
C103
n0
C104
n0
C105
n0
C106
n0
C107
n0
C108
n0
C109
n0
C110
n0
C111
n0
C112
n0
C113
n0
C114
n0
C115
n0
C116
n0
C117
n0
C118
n0
C119
n0
C120
n0
C121
n0
C122
n0
C123
n0
C124
n0
C125
n0
C126
n0
C127
n0
C128
n0
C129
n0
C130
n0
C131
n0
C132
n0
C133
n0
C134
n0
C135
n0
C136
n0
C137
n0
C138
n0
C139
n0
C140
n0
C141
n0
C142
n0
C143
n0
C144
n0
C145
n0
C146
n0
C147
n0
C148
n0
C149
n0
C150
n0
C151
n0
C152
n0
C153
n0
C154
n0
C155
n0
C156
n0
C157
n0
C158
n0
C159
n0
C160
n0
C161
n0
C162
n0
C163
n0
C164
n0
C165
n0
C166
n0
C167
n0
C168
n0
C169
n0
C170
n0
C171
n0
C172
n0
C173
n0
C174
n0
C175
n0
C176
n0
C177
n0
C178
n0
C179
n0
C180
n0
C181
n0
C182
n0
C183
n0
C184
n0
C185
n0
C186
n0
C187
n0
C188
n0
C189
n0
C190
n0
C191
n0
C192
n0
C193
n0
C194
n0
C195
n0
C196
n0
C197
n0
C198
n0
C199
n0
C200
n0
C201
n0
C202
n0
C203
n0
C204
n0
C205
n0
C206
n0
C207
n0
C208
n0
C209
n0
C210
n0
C211
n0
C212
n0
C213
n0
C214
n0
C215
n0
C216
n0
C217
n0
C218
n0
C219
n0
C220
n0
C221
n0
C222
n0
C223
n0
C224
n0
C225
n0
C226
n0
C227
n0
C228
n0
C229
n0
C230
n0
C231
n0
C232
n0
C233
n0
C234
n0
C235
n0
C236
n0
C237
n0
C238
n0
C239
n0
C240
n0
C241
n0
C242
n0
C243
n0
C244
n0
C245
n0
C246
n0
C247
n0
C248
n0
C249
n0
C250
n0
C251
n0
C252
n0
C253
n0
C254
n0
C255
n0
C256
n0
C257
n0
C258
n0
C259
n0
C260
n0
C261
n0
O0 1
n0
k414
3
6
9
12
15
18
21
24
27
30
33
36
39
42
45
48
51
54
57
60
63
66
69
72
75
78
81
84
87
90
93
96
99
112
125
138
144
155
166
177
188
199
210
221
232
243
254
293
294
297
300
303
306
309
312
315
318
321
324
327
331
335
339
343
347
351
355
359
363
367
371
374
377
380
383
386
389
392
395
398
401
404
408
412
416
420
424
428
432
436
440
444
448
451
454
457
460
463
466
469
472
475
478
481
485
489
493
497
501
505
509
513
517
521
525
528
530
532
534
536
538
540
542
544
546
548
551
553
555
557
559
561
563
565
567
569
571
574
576
578
580
582
584
586
588
590
592
594
597
599
601
603
605
607
609
611
613
615
617
620
622
624
626
628
630
632
634
636
638
640
643
645
647
649
651
653
655
657
659
661
663
666
669
672
675
678
681
684
687
690
693
696
699
702
705
708
711
714
717
720
723
726
729
732
735
738
741
744
747
750
753
756
759
762
774
786
798
803
806
809
812
815
818
821
824
827
830
833
837
840
843
846
849
852
855
858
861
864
867
871
874
877
880
883
886
889
892
895
898
901
905
908
911
914
917
920
923
926
929
932
935
939
942
945
948
951
954
957
960
963
966
969
973
976
979
982
985
988
991
994
997
1000
1003
1009
1014
1019
1024
1029
1034
1039
1044
1049
1054
1059
1065
1070
1075
1080
1085
1090
1095
1100
1105
1110
1115
1121
1126
1131
1136
1141
1146
1151
1156
1161
1166
1171
1177
1182
1187
1192
1197
1202
1207
1212
1217
1222
1227
1233
1238
1243
1248
1253
1258
1263
1268
1273
1278
1283
1289
1294
1299
1304
1309
1314
1319
1324
1329
1334
1339
1345
1350
1355
1360
1365
1370
1375
1380
1385
1390
1395
1401
1406
1411
1416
1421
1426
1431
1436
1441
1446
1451
1457
1462
1467
1472
1477
1482
1487
1492
1497
1502
1507
1513
1518
1523
1528
1533
1538
1543
1548
1553
1558
1563
1569
1574
1579
1584
1589
1594
1599
1604
1609
1614
1619
1625
1630
1635
1640
1645
1650
1655
1660
1665
1670
J0 184
0 0
1 0
2 0
3 0
4 0
5 0
6 0
7 0
8 0
9 0
10 0
11 0
12 0
13 0
14 0
15 0
16 0
17 0
18 0
19 0
20 0
21 0
22 0
23 0
24 0
25 0
26 0
27 0
28 0
29 0
30 0
31 0
32 0
33 -.15
34 -.4
35 -.65
36 0
37 0
38 0
39 0
40 0
41 0
42 0
43 0
44 0
45 0
46 0
47 0
48 0
214 .1406
215 .1406
216 .1406
283 3.8e3
284 3.8e3
285 3.8e3
286 3.8e3
287 3.8e3
288 3.8e3
289 3.8e3
290 3.8e3
291 3.8e3
292 3.8e3
293 3.8e3
294 6.08e3
295 6.08e3
296 6.08e3
297 6.08e3
298 6.08e3
299 6.08e3
300 6.08e3
301 6.08e3
302 6.08e3
303 6.08e3
304 6.08e3
305 7.5e3
306 7.5e3
307 7.5e3
308 7.5e3
309 7.5e3
310 7.5e3
311 7.5e3
312 7.5e3
313 7.5e3
314 7.5e3
315 7.5e3
316 2.25e3
317 2.25e3
318 2.25e3
319 2.25e3
320 2.25e3
321 2.25e3
322 2.25e3
323 2.25e3
324 2.25e3
325 2.25e3
326 2.25e3
327 3.08e3
328 3.08e3
329 3.08e3
330 3.08e3
331 3.08e3
332 3.08e3
333 3.08e3
334 3.08e3
335 3.08e3
336 3.08e3
337 3.08e3
338 5.39e3
339 5.39e3
340 5.39e3
341 5.39e3
342 5.39e3
343 5.39e3
344 5.39e3
345 5.39e3
346 5.39e3
347 5.39e3
348 5.39e3
349 8.36e3
350 8.36e3
351 8.36e3
352 8.36e3
353 8.36e3
354 8.36e3
355 8.36e3
356 8.36e3
357 8.36e3
358 8.36e3
359 8.36e3
360 7.6e2
361 7.6e2
362 7.6e2
363 7.6e2
364 7.6e2
365 7.6e2
366 7.6e2
367 7.6e2
368 7.6e2
369 7.6e2
370 7.6e2
371 1.5e3
372 1.5e3
373 1.5e3
374 1.5e3
375 1.5e3
376 1.5e3
377 1.5e3
378 1.5e3
379 1.5e3
380 1.5e3
381 1.5e3
382 3.75e3
383 3.75e3
384 3.75e3
385 3.75e3
386 3.75e3
387 3.75e3
388 3.75e3
389 3.75e3
390 3.75e3
391 3.75e3
392 3.75e3
393 4.62e3
394 4.62e3
395 4.62e3
396 4.62e3
397 4.62e3
398 4.62e3
399 4.62e3
400 4.62e3
401 4.62e3
402 4.62e3
403 4.62e3
404 7.7e2
405 7.7e2
406 7.7e2
407 7.7e2
408 7.7e2
409 7.7e2
410 7.7e2
411 7.7e2
412 7.7e2
413 7.7e2
414 7.7e2
J1 6
0 1
10 -1
33 0
46 0
47 0
70 -1
J2 7
0 -1
1 1
33 0
36 0
37 0
47 0
60 -1
J3 7
1 -1
2 1
33 0
37 0
38 0
47 0
61 -1
J4 7
2 -1
3 1
33 0
38 0
39 0
47 0
62 -1
J5 7
3 -1
4 1
33 0
39 0
40 0
47 0
63 -1
J6 7
4 -1
5 1
33 0
40 0
41 0
47 0
64 -1
J7 7
5 -1
6 1
33 0
41 0
42 0
47 0
65 -1
J8 7
6 -1
7 1
33 0
42 0
43 0
47 0
66 -1
J9 7
7 -1
8 1
33 0
43 0
44 0
47 0
67 -1
J10 7
8 -1
9 1
33 0
44 0
45 0
47 0
68 -1
J11 7
9 -1
10 1
33 0
45 0
46 0
47 0
69 -1
J12 6
11 1
21 -1
34 0
46 0
47 0
92 -1
J13 7
11 -1
12 1
34 0
36 0
37 0
47 0
82 -1
J14 7
12 -1
13 1
34 0
37 0
38 0
47 0
83 -1
J15 7
13 -1
14 1
34 0
38 0
39 0
47 0
84 -1
J16 7
14 -1
15 1
34 0
39 0
40 0
47 0
85 -1
J17 7
15 -1
16 1
34 0
40 0
41 0
47 0
86 -1
J18 7
16 -1
17 1
34 0
41 0
42 0
47 0
87 -1
J19 7
17 -1
18 1
34 0
42 0
43 0
47 0
88 -1
J20 7
18 -1
19 1
34 0
43 0
44 0
47 0
89 -1
J21 7
19 -1
20 1
34 0
44 0
45 0
47 0
90 -1
J22 7
20 -1
21 1
34 0
45 0
46 0
47 0
91 -1
J23 6
22 1
32 -1
35 0
46 0
47 0
114 -1
J24 7
22 -1
23 1
35 0
36 0
37 0
47 0
104 -1
J25 7
23 -1
24 1
35 0
37 0
38 0
47 0
105 -1
J26 7
24 -1
25 1
35 0
38 0
39 0
47 0
106 -1
J27 7
25 -1
26 1
35 0
39 0
40 0
47 0
107 -1
J28 7
26 -1
27 1
35 0
40 0
41 0
47 0
108 -1
J29 7
27 -1
28 1
35 0
41 0
42 0
47 0
109 -1
J30 7
28 -1
29 1
35 0
42 0
43 0
47 0
110 -1
J31 7
29 -1
30 1
35 0
43 0
44 0
47 0
111 -1
J32 7
30 -1
31 1
35 0
44 0
45 0
47 0
112 -1
J33 7
31 -1
32 1
35 0
45 0
46 0
47 0
113 -1
J34 8
115 1
125 -1
217 1
227 -1
283 1
294 1
315 -1
337 -1
J35 8
115 -1
116 1
217 -1
218 1
284 1
295 1
305 -1
327 -1
J36 8
116 -1
117 1
218 -1
219 1
285 1
296 1
306 -1
328 -1
J37 8
117 -1
118 1
219 -1
220 1
286 1
297 1
307 -1
329 -1
J38 8
118 -1
119 1
220 -1
221 1
287 1
298 1
308 -1
330 -1
J39 8
119 -1
120 1
221 -1
222 1
288 1
299 1
309 -1
331 -1
J40 8
120 -1
121 1
222 -1
223 1
289 1
300 1
310 -1
332 -1
J41 8
121 -1
122 1
223 -1
224 1
290 1
301 1
311 -1
333 -1
J42 8
122 -1
123 1
224 -1
225 1
291 1
302 1
312 -1
334 -1
J43 8
123 -1
124 1
225 -1
226 1
292 1
303 1
313 -1
335 -1
J44 8
124 -1
125 1
226 -1
227 1
293 1
304 1
314 -1
336 -1
J45 8
126 1
136 -1
239 1
249 -1
293 -1
305 1
316 1
348 -1
J46 8
126 -1
127 1
239 -1
240 1
283 -1
306 1
317 1
338 -1
J47 8
127 -1
128 1
240 -1
241 1
284 -1
307 1
318 1
339 -1
J48 8
128 -1
129 1
241 -1
242 1
285 -1
308 1
319 1
340 -1
J49 8
129 -1
130 1
242 -1
243 1
286 -1
309 1
320 1
341 -1
J50 8
130 -1
131 1
243 -1
244 1
287 -1
310 1
321 1
342 -1
J51 8
131 -1
132 1
244 -1
245 1
288 -1
311 1
322 1
343 -1
J52 8
132 -1
133 1
245 -1
246 1
289 -1
312 1
323 1
344 -1
J53 8
133 -1
134 1
246 -1
247 1
290 -1
313 1
324 1
345 -1
J54 8
134 -1
135 1
247 -1
248 1
291 -1
314 1
325 1
346 -1
J55 8
135 -1
136 1
248 -1
249 1
292 -1
315 1
326 1
347 -1
J56 8
137 1
147 -1
261 1
271 -1
304 -1
326 -1
327 1
338 1
J57 8
137 -1
138 1
261 -1
262 1
294 -1
316 -1
328 1
339 1
J58 8
138 -1
139 1
262 -1
263 1
295 -1
317 -1
329 1
340 1
J59 8
139 -1
140 1
263 -1
264 1
296 -1
318 -1
330 1
341 1
J60 8
140 -1
141 1
264 -1
265 1
297 -1
319 -1
331 1
342 1
J61 8
141 -1
142 1
265 -1
266 1
298 -1
320 -1
332 1
343 1
J62 8
142 -1
143 1
266 -1
267 1
299 -1
321 -1
333 1
344 1
J63 8
143 -1
144 1
267 -1
268 1
300 -1
322 -1
334 1
345 1
J64 8
144 -1
145 1
268 -1
269 1
301 -1
323 -1
335 1
346 1
J65 8
145 -1
146 1
269 -1
270 1
302 -1
324 -1
336 1
347 1
J66 8
146 -1
147 1
270 -1
271 1
303 -1
325 -1
337 1
348 1
J67 8
148 1
158 -1
228 1
238 -1
349 1
360 1
381 -1
403 -1
J68 8
148 -1
149 1
228 -1
229 1
350 1
361 1
371 -1
393 -1
J69 8
149 -1
150 1
229 -1
230 1
351 1
362 1
372 -1
394 -1
J70 8
150 -1
151 1
230 -1
231 1
352 1
363 1
373 -1
395 -1
J71 8
151 -1
152 1
231 -1
232 1
353 1
364 1
374 -1
396 -1
J72 8
152 -1
153 1
232 -1
233 1
354 1
365 1
375 -1
397 -1
J73 8
153 -1
154 1
233 -1
234 1
355 1
366 1
376 -1
398 -1
J74 8
154 -1
155 1
234 -1
235 1
356 1
367 1
377 -1
399 -1
J75 8
155 -1
156 1
235 -1
236 1
357 1
368 1
378 -1
400 -1
J76 8
156 -1
157 1
236 -1
237 1
358 1
369 1
379 -1
401 -1
J77 8
157 -1
158 1
237 -1
238 1
359 1
370 1
380 -1
402 -1
J78 8
159 1
169 -1
250 1
260 -1
359 -1
371 1
382 1
414 -1
J79 8
159 -1
160 1
250 -1
251 1
349 -1
372 1
383 1
404 -1
J80 8
160 -1
161 1
251 -1
252 1
350 -1
373 1
384 1
405 -1
J81 8
161 -1
162 1
252 -1
253 1
351 -1
374 1
385 1
406 -1
J82 8
162 -1
163 1
253 -1
254 1
352 -1
375 1
386 1
407 -1
J83 8
163 -1
164 1
254 -1
255 1
353 -1
376 1
387 1
408 -1
J84 8
164 -1
165 1
255 -1
256 1
354 -1
377 1
388 1
409 -1
J85 8
165 -1
166 1
256 -1
257 1
355 -1
378 1
389 1
410 -1
J86 8
166 -1
167 1
257 -1
258 1
356 -1
379 1
390 1
411 -1
J87 8
167 -1
168 1
258 -1
259 1
357 -1
380 1
391 1
412 -1
J88 8
168 -1
169 1
259 -1
260 1
358 -1
381 1
392 1
413 -1
J89 8
170 1
180 -1
272 1
282 -1
370 -1
392 -1
393 1
404 1
J90 8
170 -1
171 1
272 -1
273 1
360 -1
382 -1
394 1
405 1
J91 8
171 -1
172 1
273 -1
274 1
361 -1
383 -1
395 1
406 1
J92 8
172 -1
173 1
274 -1
275 1
362 -1
384 -1
396 1
407 1
J93 8
173 -1
174 1
275 -1
276 1
363 -1
385 -1
397 1
408 1
J94 8
174 -1
175 1
276 -1
277 1
364 -1
386 -1
398 1
409 1
J95 8
175 -1
176 1
277 -1
278 1
365 -1
387 -1
399 1
410 1
J96 8
176 -1
177 1
278 -1
279 1
366 -1
388 -1
400 1
411 1
J97 8
177 -1
178 1
279 -1
280 1
367 -1
389 -1
401 1
412 1
J98 8
178 -1
179 1
280 -1
281 1
368 -1
390 -1
402 1
413 1
J99 8
179 -1
180 1
281 -1
282 1
369 -1
391 -1
403 1
414 1
J100 4
59 -1
70 1
181 1
191 -1
J101 4
49 -1
60 1
181 -1
182 1
J102 4
50 -1
61 1
182 -1
183 1
J103 4
51 -1
62 1
183 -1
184 1
J104 4
52 -1
63 1
184 -1
185 1
J105 4
53 -1
64 1
185 -1
186 1
J106 4
54 -1
65 1
186 -1
187 1
J107 4
55 -1
66 1
187 -1
188 1
J108 4
56 -1
67 1
188 -1
189 1
J109 4
57 -1
68 1
189 -1
190 1
J110 4
58 -1
69 1
190 -1
191 1
J111 4
81 -1
92 1
192 1
202 -1
J112 4
71 -1
82 1
192 -1
193 1
J113 4
72 -1
83 1
193 -1
194 1
J114 4
73 -1
84 1
194 -1
195 1
J115 4
74 -1
85 1
195 -1
196 1
J116 4
75 -1
86 1
196 -1
197 1
J117 4
76 -1
87 1
197 -1
198 1
J118 4
77 -1
88 1
198 -1
199 1
J119 4
78 -1
89 1
199 -1
200 1
J120 4
79 -1
90 1
200 -1
201 1
J121 4
80 -1
91 1
201 -1
202 1
J122 4
103 -1
114 1
203 1
213 -1
J123 4
93 -1
104 1
203 -1
204 1
J124 4
94 -1
105 1
204 -1
205 1
J125 4
95 -1
106 1
205 -1
206 1
J126 4
96 -1
107 1
206 -1
207 1
J127 4
97 -1
108 1
207 -1
208 1
J128 4
98 -1
109 1
208 -1
209 1
J129 4
99 -1
110 1
209 -1
210 1
J130 4
100 -1
111 1
210 -1
211 1
J131 4
101 -1
112 1
211 -1
212 1
J132 4
102 -1
113 1
212 -1
213 1
J133 12
115 1
126 1
137 1
217 1
239 1
261 1
283 1
294 1
305 1
316 1
327 1
338 1
J134 12
148 1
159 1
170 1
228 1
250 1
272 1
349 1
360 1
371 1
382 1
393 1
404 1
J135 11
36 -1
37 1
49 -1.25e-3
71 -8.33333333333333e-4
93 -1e-3
283 -5
294 -8
305 -10
316 -3
327 -4
338 -7
J136 11
37 -1
38 1
50 -1.25e-3
72 -8.33333333333333e-4
94 -1e-3
284 -5
295 -8
306 -10
317 -3
328 -4
339 -7
J137 11
38 -1
39 1
51 -1.25e-3
73 -8.33333333333333e-4
95 -1e-3
285 -5
296 -8
307 -10
318 -3
329 -4
340 -7
J138 11
39 -1
40 1
52 -1.25e-3
74 -8.33333333333333e-4
96 -1e-3
286 -5
297 -8
308 -10
319 -3
330 -4
341 -7
J139 11
40 -1
41 1
53 -1.25e-3
75 -8.33333333333333e-4
97 -1e-3
287 -5
298 -8
309 -10
320 -3
331 -4
342 -7
J140 11
41 -1
42 1
54 -1.25e-3
76 -8.33333333333333e-4
98 -1e-3
288 -5
299 -8
310 -10
321 -3
332 -4
343 -7
J141 11
42 -1
43 1
55 -1.25e-3
77 -8.33333333333333e-4
99 -1e-3
289 -5
300 -8
311 -10
322 -3
333 -4
344 -7
J142 11
43 -1
44 1
56 -1.25e-3
78 -8.33333333333333e-4
100 -1e-3
290 -5
301 -8
312 -10
323 -3
334 -4
345 -7
J143 11
44 -1
45 1
57 -1.25e-3
79 -8.33333333333333e-4
101 -1e-3
291 -5
302 -8
313 -10
324 -3
335 -4
346 -7
J144 11
45 -1
46 1
58 -1.25e-3
80 -8.33333333333333e-4
102 -1e-3
292 -5
303 -8
314 -10
325 -3
336 -4
347 -7
J145 11
46 -1
47 1
59 -1.25e-3
81 -8.33333333333333e-4
103 -1e-3
293 -5
304 -8
315 -10
326 -3
337 -4
348 -7
J146 11
36 -1
37 1
60 -1.11111111111111e-3
82 -1.66666666666667e-3
104 -9.09090909090909e-4
349 -11
360 -1
371 -2
382 -5
393 -6
404 -1
J147 11
37 -1
38 1
61 -1.11111111111111e-3
83 -1.66666666666667e-3
105 -9.09090909090909e-4
350 -11
361 -1
372 -2
383 -5
394 -6
405 -1
J148 11
38 -1
39 1
62 -1.11111111111111e-3
84 -1.66666666666667e-3
106 -9.09090909090909e-4
351 -11
362 -1
373 -2
384 -5
395 -6
406 -1
J149 11
39 -1
40 1
63 -1.11111111111111e-3
85 -1.66666666666667e-3
107 -9.09090909090909e-4
352 -11
363 -1
374 -2
385 -5
396 -6
407 -1
J150 11
40 -1
41 1
64 -1.11111111111111e-3
86 -1.66666666666667e-3
108 -9.09090909090909e-4
353 -11
364 -1
375 -2
386 -5
397 -6
408 -1
J151 11
41 -1
42 1
65 -1.11111111111111e-3
87 -1.66666666666667e-3
109 -9.09090909090909e-4
354 -11
365 -1
376 -2
387 -5
398 -6
409 -1
J152 11
42 -1
43 1
66 -1.11111111111111e-3
88 -1.66666666666667e-3
110 -9.09090909090909e-4
355 -11
366 -1
377 -2
388 -5
399 -6
410 -1
J153 11
43 -1
44 1
67 -1.11111111111111e-3
89 -1.66666666666667e-3
111 -9.09090909090909e-4
356 -11
367 -1
378 -2
389 -5
400 -6
411 -1
J154 11
44 -1
45 1
68 -1.11111111111111e-3
90 -1.66666666666667e-3
112 -9.09090909090909e-4
357 -11
368 -1
379 -2
390 -5
401 -6
412 -1
J155 11
45 -1
46 1
69 -1.11111111111111e-3
91 -1.66666666666667e-3
113 -9.09090909090909e-4
358 -11
369 -1
380 -2
391 -5
402 -6
413 -1
J156 11
46 -1
47 1
70 -1.11111111111111e-3
92 -1.66666666666667e-3
114 -9.09090909090909e-4
359 -11
370 -1
381 -2
392 -5
403 -6
414 -1
J157 2
49 1
217 -2e5
J158 2
50 1
218 -2e5
J159 2
51 1
219 -2e5
J160 2
52 1
220 -2e5
J161 2
53 1
221 -2e5
J162 2
54 1
222 -2e5
J163 2
55 1
223 -2e5
J164 2
56 1
224 -2e5
J165 2
57 1
225 -2e5
J166 2
58 1
226 -2e5
J167 2
59 1
227 -2e5
J168 2
60 1
228 -2.25e5
J169 2
61 1
229 -2.25e5
J170 2
62 1
230 -2.25e5
J171 2
63 1
231 -2.25e5
J172 2
64 1
232 -2.25e5
J173 2
65 1
233 -2.25e5
J174 2
66 1
234 -2.25e5
J175 2
67 1
235 -2.25e5
J176 2
68 1
236 -2.25e5
J177 2
69 1
237 -2.25e5
J178 2
70 1
238 -2.25e5
J179 2
71 1
239 -3e5
J180 2
72 1
240 -3e5
J181 2
73 1
241 -3e5
J182 2
74 1
242 -3e5
J183 2
75 1
243 -3e5
J184 2
76 1
244 -3e5
J185 2
77 1
245 -3e5
J186 2
78 1
246 -3e5
J187 2
79 1
247 -3e5
J188 2
80 1
248 -3e5
J189 2
81 1
249 -3e5
J190 2
82 1
250 -1.5e5
J191 2
83 1
251 -1.5e5
J192 2
84 1
252 -1.5e5
J193 2
85 1
253 -1.5e5
J194 2
86 1
254 -1.5e5
J195 2
87 1
255 -1.5e5
J196 2
88 1
256 -1.5e5
J197 2
89 1
257 -1.5e5
J198 2
90 1
258 -1.5e5
J199 2
91 1
259 -1.5e5
J200 2
92 1
260 -1.5e5
J201 2
93 1
261 -2.5e5
J202 2
94 1
262 -2.5e5
J203 2
95 1
263 -2.5e5
J204 2
96 1
264 -2.5e5
J205 2
97 1
265 -2.5e5
J206 2
98 1
266 -2.5e5
J207 2
99 1
267 -2.5e5
J208 2
100 1
268 -2.5e5
J209 2
101 1
269 -2.5e5
J210 2
102 1
270 -2.5e5
J211 2
103 1
271 -2.5e5
J212 2
104 1
272 -2.75e5
J213 2
105 1
273 -2.75e5
J214 2
106 1
274 -2.75e5
J215 2
107 1
275 -2.75e5
J216 2
108 1
276 -2.75e5
J217 2
109 1
277 -2.75e5
J218 2
110 1
278 -2.75e5
J219 2
111 1
279 -2.75e5
J220 2
112 1
280 -2.75e5
J221 2
113 1
281 -2.75e5
J222 2
114 1
282 -2.75e5
J223 2
33 1
47 -50
J224 2
34 1
47 -100
J225 2
35 1
47 -2.5e2
J226 2
181 1
214 -1
J227 2
182 1
214 -1
J228 2
183 1
214 -1
J229 2
184 1
214 -1
J230 2
185 1
214 -1
J231 2
186 1
214 -1
J232 2
187 1
214 -1
J233 2
188 1
214 -1
J234 2
189 1
214 -1
J235 2
190 1
214 -1
J236 2
191 1
214 -1
J237 2
192 1
215 -1
J238 2
193 1
215 -1
J239 2
194 1
215 -1
J240 2
195 1
215 -1
J241 2
196 1
215 -1
J242 2
197 1
215 -1
J243 2
198 1
215 -1
J244 2
199 1
215 -1
J245 2
200 1
215 -1
J246 2
201 1
215 -1
J247 2
202 1
215 -1
J248 2
203 1
216 -1
J249 2
204 1
216 -1
J250 2
205 1
216 -1
J251 2
206 1
216 -1
J252 2
207 1
216 -1
J253 2
208 1
216 -1
J254 2
209 1
216 -1
J255 2
210 1
216 -1
J256 2
211 1
216 -1
J257 2
212 1
216 -1
J258 2
213 1
216 -1
J259 66
283 1
284 1
285 1
286 1
287 1
288 1
289 1
290 1
291 1
292 1
293 1
294 1
295 1
296 1
297 1
298 1
299 1
300 1
301 1
302 1
303 1
304 1
305 1
306 1
307 1
308 1
309 1
310 1
311 1
312 1
313 1
314 1
315 1
316 1
317 1
318 1
319 1
320 1
321 1
322 1
323 1
324 1
325 1
326 1
327 1
328 1
329 1
330 1
331 1
332 1
333 1
334 1
335 1
336 1
337 1
338 1
339 1
340 1
341 1
342 1
343 1
344 1
345 1
346 1
347 1
348 1
J260 66
349 1
350 1
351 1
352 1
353 1
354 1
355 1
356 1
357 1
358 1
359 1
360 1
361 1
362 1
363 1
364 1
365 1
366 1
367 1
368 1
369 1
370 1
371 1
372 1
373 1
374 1
375 1
376 1
377 1
378 1
379 1
380 1
381 1
382 1
383 1
384 1
385 1
386 1
387 1
388 1
389 1
390 1
391 1
392 1
393 1
394 1
395 1
396 1
397 1
398 1
399 1
400 1
401 1
402 1
403 1
404 1
405 1
406 1
407 1
408 1
409 1
410 1
411 1
412 1
413 1
414 1
J261 1
217 1
G0 1
48 1
